N = 448;
M = 1092;
Edge_Start = [1, 1, 2, 3, 3, 4, 5, 5, 6, 7, 7, 8, 9, 9, 11, 11, 12, 13, 13, 15, 15, 16, 17, 18, 19, 20, 21, 21, 22, 23, 24, 26, 27, 28, 29, 31, 31, 32, 33, 33, 34, 35, 35, 36, 37, 37, 38, 39, 39, 40, 41, 41, 42, 43, 43, 45, 45, 46, 47, 47, 48, 49, 49, 50, 51, 51, 53, 53, 54, 55, 56, 57, 57, 58, 59, 60, 60, 61, 62, 62, 63, 64, 66, 66, 67, 68, 68, 69, 70, 70, 71, 72, 72, 73, 74, 74, 75, 76, 76, 77, 78, 78, 79, 80, 81, 82, 82, 84, 85, 86, 86, 87, 88, 88, 90, 91, 91, 92, 93, 94, 95, 95, 96, 97, 97, 98, 99, 99, 100, 101, 101, 102, 103, 103, 104, 105, 105, 106, 108, 109, 109, 110, 111, 111, 112, 113, 113, 114, 115, 115, 116, 117, 117, 118, 119, 120, 120, 121, 122, 123, 124, 124, 125, 126, 126, 128, 128, 129, 130, 130, 131, 132, 132, 133, 134, 134, 135, 136, 136, 137, 138, 138, 139, 140, 140, 141, 142, 142, 143, 144, 144, 145, 146, 146, 147, 148, 151, 151, 152, 153, 153, 154, 155, 156, 157, 157, 159, 159, 160, 161, 161, 162, 163, 163, 165, 166, 167, 167, 168, 169, 169, 170, 171, 172, 173, 173, 174, 175, 176, 177, 177, 178, 179, 180, 180, 181, 182, 183, 184, 185, 186, 187, 188, 189, 190, 190, 191, 192, 192, 193, 194, 194, 196, 197, 198, 199, 200, 200, 201, 202, 202, 204, 204, 205, 206, 207, 208, 208, 210, 211, 211, 213, 214, 215, 215, 217, 218, 219, 220, 221, 221, 223, 224, 225, 225, 227, 228, 229, 229, 230, 231, 231, 232, 233, 233, 234, 235, 236, 237, 237, 238, 240, 240, 242, 243, 244, 244, 245, 246, 246, 247, 248, 249, 250, 250, 251, 252, 253, 254, 255, 256, 256, 257, 258, 258, 259, 260, 261, 262, 262, 263, 264, 264, 265, 266, 267, 268, 270, 271, 271, 272, 273, 273, 274, 275, 275, 276, 277, 278, 279, 280, 281, 282, 283, 283, 284, 286, 287, 287, 289, 290, 291, 291, 292, 293, 293, 294, 295, 295, 296, 297, 297, 299, 300, 300, 301, 302, 302, 303, 304, 304, 305, 306, 306, 307, 308, 309, 310, 310, 311, 312, 313, 314, 314, 316, 317, 318, 319, 320, 320, 321, 322, 324, 324, 325, 326, 326, 327, 328, 328, 330, 331, 332, 333, 333, 334, 335, 335, 337, 337, 338, 339, 339, 341, 341, 342, 343, 343, 344, 345, 345, 347, 348, 349, 349, 350, 351, 351, 352, 353, 353, 355, 355, 356, 357, 357, 358, 359, 360, 360, 361, 362, 362, 363, 364, 364, 365, 366, 366, 368, 368, 369, 370, 371, 372, 372, 373, 374, 375, 376, 376, 377, 378, 378, 379, 380, 380, 382, 382, 383, 384, 385, 386, 386, 387, 388, 388, 391, 391, 392, 393, 394, 395, 395, 396, 397, 397, 398, 399, 399, 400, 401, 401, 402, 403, 404, 405, 406, 407, 407, 408, 409, 410, 411, 412, 413, 413, 414, 415, 417, 418, 419, 420, 421, 422, 424, 425, 426, 427, 429, 430, 431, 432, 433, 434, 435, 436, 437, 438, 440, 442, 443, 444, 445, 446, 447, 2, 30, 3, 4, 32, 5, 6, 34, 7, 8, 36, 9, 10, 38, 12, 40, 13, 14, 42, 16, 44, 17, 18, 19, 48, 21, 22, 50, 23, 24, 25, 27, 56, 29, 58, 32, 61, 33, 34, 63, 35, 36, 65, 37, 38, 67, 39, 40, 69, 41, 42, 71, 43, 44, 73, 46, 75, 47, 48, 77, 49, 50, 79, 51, 52, 81, 54, 83, 55, 56, 57, 58, 87, 59, 89, 61, 90, 62, 63, 92, 64, 65, 67, 96, 68, 69, 98, 70, 71, 100, 72, 73, 102, 74, 75, 104, 76, 77, 106, 78, 79, 108, 80, 81, 82, 83, 112, 85, 86, 87, 116, 88, 89, 118, 91, 92, 121, 93, 123, 95, 96, 125, 97, 98, 127, 99, 100, 129, 101, 102, 131, 103, 104, 133, 105, 106, 135, 107, 109, 110, 139, 111, 112, 141, 113, 114, 143, 115, 116, 145, 117, 118, 147, 119, 149, 121, 150, 122, 123, 124, 125, 154, 126, 127, 156, 129, 158, 130, 131, 160, 132, 133, 162, 134, 135, 164, 136, 137, 166, 138, 139, 168, 140, 141, 170, 142, 143, 172, 144, 145, 174, 146, 147, 176, 148, 178, 152, 181, 153, 154, 183, 155, 185, 157, 158, 187, 160, 189, 161, 162, 191, 163, 164, 193, 166, 167, 168, 197, 169, 170, 199, 171, 201, 173, 174, 203, 175, 205, 177, 178, 207, 179, 209, 181, 210, 182, 212, 184, 214, 186, 187, 188, 218, 190, 191, 220, 192, 193, 222, 194, 195, 224, 197, 198, 228, 200, 201, 230, 202, 203, 232, 205, 234, 206, 207, 208, 209, 238, 211, 212, 241, 214, 215, 216, 245, 247, 219, 249, 221, 222, 251, 253, 225, 226, 255, 228, 229, 230, 259, 231, 232, 261, 233, 234, 263, 235, 236, 237, 238, 267, 239, 241, 270, 272, 244, 245, 274, 246, 247, 276, 248, 278, 250, 251, 280, 252, 282, 254, 255, 256, 257, 286, 258, 259, 288, 260, 290, 262, 263, 292, 264, 265, 294, 266, 296, 268, 269, 271, 272, 301, 273, 274, 303, 275, 276, 305, 277, 307, 279, 309, 281, 311, 283, 284, 313, 285, 287, 288, 317, 319, 291, 292, 321, 293, 294, 323, 295, 296, 325, 297, 298, 327, 329, 301, 330, 302, 303, 332, 304, 305, 334, 306, 307, 336, 308, 338, 310, 311, 340, 312, 342, 314, 315, 344, 317, 318, 319, 320, 321, 350, 322, 323, 325, 354, 326, 327, 356, 328, 329, 358, 331, 361, 333, 334, 363, 335, 336, 365, 338, 367, 339, 340, 369, 342, 371, 343, 344, 373, 345, 346, 375, 377, 349, 350, 379, 351, 352, 381, 353, 354, 383, 356, 385, 357, 358, 387, 359, 389, 361, 390, 362, 363, 392, 364, 365, 394, 366, 367, 396, 369, 398, 370, 371, 372, 373, 402, 374, 404, 376, 377, 406, 378, 379, 408, 380, 381, 410, 383, 412, 384, 385, 386, 387, 416, 388, 389, 418, 392, 420, 393, 394, 395, 396, 424, 397, 398, 426, 399, 400, 428, 401, 402, 430, 403, 432, 405, 406, 407, 408, 436, 409, 438, 411, 440, 413, 414, 442, 415, 444, 446, 419, 448, 421, 422, 423, 425, 426, 427, 428, 430, 431, 432, 433, 434, 435, 436, 437, 438, 439, 441, 443, 444, 445, 446, 447, 448];
Edge_End = [2, 30, 3, 4, 32, 5, 6, 34, 7, 8, 36, 9, 10, 38, 12, 40, 13, 14, 42, 16, 44, 17, 18, 19, 48, 21, 22, 50, 23, 24, 25, 27, 56, 29, 58, 32, 61, 33, 34, 63, 35, 36, 65, 37, 38, 67, 39, 40, 69, 41, 42, 71, 43, 44, 73, 46, 75, 47, 48, 77, 49, 50, 79, 51, 52, 81, 54, 83, 55, 56, 57, 58, 87, 59, 89, 61, 90, 62, 63, 92, 64, 65, 67, 96, 68, 69, 98, 70, 71, 100, 72, 73, 102, 74, 75, 104, 76, 77, 106, 78, 79, 108, 80, 81, 82, 83, 112, 85, 86, 87, 116, 88, 89, 118, 91, 92, 121, 93, 123, 95, 96, 125, 97, 98, 127, 99, 100, 129, 101, 102, 131, 103, 104, 133, 105, 106, 135, 107, 109, 110, 139, 111, 112, 141, 113, 114, 143, 115, 116, 145, 117, 118, 147, 119, 149, 121, 150, 122, 123, 124, 125, 154, 126, 127, 156, 129, 158, 130, 131, 160, 132, 133, 162, 134, 135, 164, 136, 137, 166, 138, 139, 168, 140, 141, 170, 142, 143, 172, 144, 145, 174, 146, 147, 176, 148, 178, 152, 181, 153, 154, 183, 155, 185, 157, 158, 187, 160, 189, 161, 162, 191, 163, 164, 193, 166, 167, 168, 197, 169, 170, 199, 171, 201, 173, 174, 203, 175, 205, 177, 178, 207, 179, 209, 181, 210, 182, 212, 184, 214, 186, 187, 188, 218, 190, 191, 220, 192, 193, 222, 194, 195, 224, 197, 198, 228, 200, 201, 230, 202, 203, 232, 205, 234, 206, 207, 208, 209, 238, 211, 212, 241, 214, 215, 216, 245, 247, 219, 249, 221, 222, 251, 253, 225, 226, 255, 228, 229, 230, 259, 231, 232, 261, 233, 234, 263, 235, 236, 237, 238, 267, 239, 241, 270, 272, 244, 245, 274, 246, 247, 276, 248, 278, 250, 251, 280, 252, 282, 254, 255, 256, 257, 286, 258, 259, 288, 260, 290, 262, 263, 292, 264, 265, 294, 266, 296, 268, 269, 271, 272, 301, 273, 274, 303, 275, 276, 305, 277, 307, 279, 309, 281, 311, 283, 284, 313, 285, 287, 288, 317, 319, 291, 292, 321, 293, 294, 323, 295, 296, 325, 297, 298, 327, 329, 301, 330, 302, 303, 332, 304, 305, 334, 306, 307, 336, 308, 338, 310, 311, 340, 312, 342, 314, 315, 344, 317, 318, 319, 320, 321, 350, 322, 323, 325, 354, 326, 327, 356, 328, 329, 358, 331, 361, 333, 334, 363, 335, 336, 365, 338, 367, 339, 340, 369, 342, 371, 343, 344, 373, 345, 346, 375, 377, 349, 350, 379, 351, 352, 381, 353, 354, 383, 356, 385, 357, 358, 387, 359, 389, 361, 390, 362, 363, 392, 364, 365, 394, 366, 367, 396, 369, 398, 370, 371, 372, 373, 402, 374, 404, 376, 377, 406, 378, 379, 408, 380, 381, 410, 383, 412, 384, 385, 386, 387, 416, 388, 389, 418, 392, 420, 393, 394, 395, 396, 424, 397, 398, 426, 399, 400, 428, 401, 402, 430, 403, 432, 405, 406, 407, 408, 436, 409, 438, 411, 440, 413, 414, 442, 415, 444, 446, 419, 448, 421, 422, 423, 425, 426, 427, 428, 430, 431, 432, 433, 434, 435, 436, 437, 438, 439, 441, 443, 444, 445, 446, 447, 448, 1, 1, 2, 3, 3, 4, 5, 5, 6, 7, 7, 8, 9, 9, 11, 11, 12, 13, 13, 15, 15, 16, 17, 18, 19, 20, 21, 21, 22, 23, 24, 26, 27, 28, 29, 31, 31, 32, 33, 33, 34, 35, 35, 36, 37, 37, 38, 39, 39, 40, 41, 41, 42, 43, 43, 45, 45, 46, 47, 47, 48, 49, 49, 50, 51, 51, 53, 53, 54, 55, 56, 57, 57, 58, 59, 60, 60, 61, 62, 62, 63, 64, 66, 66, 67, 68, 68, 69, 70, 70, 71, 72, 72, 73, 74, 74, 75, 76, 76, 77, 78, 78, 79, 80, 81, 82, 82, 84, 85, 86, 86, 87, 88, 88, 90, 91, 91, 92, 93, 94, 95, 95, 96, 97, 97, 98, 99, 99, 100, 101, 101, 102, 103, 103, 104, 105, 105, 106, 108, 109, 109, 110, 111, 111, 112, 113, 113, 114, 115, 115, 116, 117, 117, 118, 119, 120, 120, 121, 122, 123, 124, 124, 125, 126, 126, 128, 128, 129, 130, 130, 131, 132, 132, 133, 134, 134, 135, 136, 136, 137, 138, 138, 139, 140, 140, 141, 142, 142, 143, 144, 144, 145, 146, 146, 147, 148, 151, 151, 152, 153, 153, 154, 155, 156, 157, 157, 159, 159, 160, 161, 161, 162, 163, 163, 165, 166, 167, 167, 168, 169, 169, 170, 171, 172, 173, 173, 174, 175, 176, 177, 177, 178, 179, 180, 180, 181, 182, 183, 184, 185, 186, 187, 188, 189, 190, 190, 191, 192, 192, 193, 194, 194, 196, 197, 198, 199, 200, 200, 201, 202, 202, 204, 204, 205, 206, 207, 208, 208, 210, 211, 211, 213, 214, 215, 215, 217, 218, 219, 220, 221, 221, 223, 224, 225, 225, 227, 228, 229, 229, 230, 231, 231, 232, 233, 233, 234, 235, 236, 237, 237, 238, 240, 240, 242, 243, 244, 244, 245, 246, 246, 247, 248, 249, 250, 250, 251, 252, 253, 254, 255, 256, 256, 257, 258, 258, 259, 260, 261, 262, 262, 263, 264, 264, 265, 266, 267, 268, 270, 271, 271, 272, 273, 273, 274, 275, 275, 276, 277, 278, 279, 280, 281, 282, 283, 283, 284, 286, 287, 287, 289, 290, 291, 291, 292, 293, 293, 294, 295, 295, 296, 297, 297, 299, 300, 300, 301, 302, 302, 303, 304, 304, 305, 306, 306, 307, 308, 309, 310, 310, 311, 312, 313, 314, 314, 316, 317, 318, 319, 320, 320, 321, 322, 324, 324, 325, 326, 326, 327, 328, 328, 330, 331, 332, 333, 333, 334, 335, 335, 337, 337, 338, 339, 339, 341, 341, 342, 343, 343, 344, 345, 345, 347, 348, 349, 349, 350, 351, 351, 352, 353, 353, 355, 355, 356, 357, 357, 358, 359, 360, 360, 361, 362, 362, 363, 364, 364, 365, 366, 366, 368, 368, 369, 370, 371, 372, 372, 373, 374, 375, 376, 376, 377, 378, 378, 379, 380, 380, 382, 382, 383, 384, 385, 386, 386, 387, 388, 388, 391, 391, 392, 393, 394, 395, 395, 396, 397, 397, 398, 399, 399, 400, 401, 401, 402, 403, 404, 405, 406, 407, 407, 408, 409, 410, 411, 412, 413, 413, 414, 415, 417, 418, 419, 420, 421, 422, 424, 425, 426, 427, 429, 430, 431, 432, 433, 434, 435, 436, 437, 438, 440, 442, 443, 444, 445, 446, 447];
L = [15, 9, 1, 8, 1, 2, 9, 11, 13, 12, 11, 5, 9, 19, 2, 16, 14, 11, 4, 15, 14, 14, 12, 18, 8, 11, 6, 12, 8, 5, 13, 18, 4, 17, 14, 15, 13, 8, 2, 8, 11, 19, 5, 6, 3, 14, 18, 17, 11, 14, 6, 13, 18, 6, 6, 14, 19, 8, 4, 2, 17, 16, 14, 18, 11, 19, 14, 19, 14, 6, 14, 13, 10, 9, 10, 13, 12, 18, 13, 19, 10, 18, 6, 2, 11, 7, 10, 14, 3, 4, 8, 4, 5, 5, 7, 9, 17, 16, 9, 11, 8, 18, 1, 4, 1, 12, 5, 1, 14, 7, 11, 9, 12, 6, 13, 5, 14, 11, 18, 1, 13, 4, 1, 1, 16, 11, 11, 10, 18, 5, 19, 4, 7, 15, 1, 12, 11, 17, 15, 1, 5, 10, 14, 17, 16, 10, 16, 11, 18, 1, 13, 14, 12, 18, 10, 18, 9, 16, 6, 8, 12, 10, 12, 11, 19, 10, 16, 17, 7, 11, 16, 6, 17, 11, 6, 8, 1, 13, 7, 5, 2, 1, 11, 18, 17, 1, 1, 12, 17, 10, 3, 16, 9, 10, 11, 3, 18, 5, 15, 3, 19, 13, 19, 16, 10, 14, 5, 5, 6, 16, 1, 11, 16, 13, 4, 13, 15, 5, 7, 16, 4, 3, 2, 6, 5, 9, 16, 19, 1, 3, 1, 14, 10, 1, 13, 13, 11, 16, 11, 8, 2, 14, 17, 16, 17, 12, 18, 4, 8, 18, 15, 6, 1, 3, 16, 9, 3, 18, 3, 4, 1, 18, 5, 4, 10, 14, 6, 2, 9, 7, 19, 14, 16, 13, 3, 1, 6, 7, 17, 19, 19, 8, 3, 7, 12, 1, 4, 7, 4, 9, 16, 8, 9, 13, 12, 17, 1, 5, 3, 6, 2, 9, 14, 7, 3, 11, 5, 9, 16, 19, 11, 18, 13, 5, 18, 14, 17, 15, 9, 18, 19, 8, 9, 14, 13, 12, 9, 12, 8, 12, 15, 3, 11, 17, 7, 4, 6, 7, 4, 17, 9, 6, 7, 6, 1, 6, 1, 2, 3, 14, 2, 3, 16, 18, 10, 7, 4, 4, 6, 10, 15, 15, 4, 10, 10, 10, 3, 17, 13, 12, 4, 16, 6, 17, 2, 18, 6, 8, 7, 16, 18, 4, 5, 11, 3, 2, 16, 19, 17, 10, 13, 16, 16, 7, 4, 9, 14, 13, 19, 6, 2, 18, 1, 3, 1, 18, 17, 12, 1, 14, 14, 12, 14, 15, 9, 6, 1, 6, 13, 19, 10, 18, 8, 14, 19, 9, 11, 11, 16, 11, 12, 3, 14, 8, 7, 9, 3, 2, 12, 2, 5, 11, 8, 2, 2, 16, 2, 10, 2, 12, 1, 6, 14, 6, 15, 18, 14, 13, 15, 9, 14, 13, 19, 12, 4, 19, 16, 14, 13, 10, 17, 15, 14, 15, 18, 18, 8, 2, 11, 18, 7, 7, 16, 16, 8, 16, 18, 3, 12, 3, 9, 13, 4, 3, 17, 17, 15, 17, 6, 11, 18, 2, 1, 18, 16, 1, 5, 6, 12, 19, 14, 17, 18, 18, 10, 19, 17, 3, 3, 19, 6, 10, 17, 4, 1, 12, 16, 4, 11, 9, 9, 14, 19, 10, 17, 12, 15, 19, 8, 4, 11, 2, 10, 8, 10, 9, 15, 9, 1, 8, 1, 2, 9, 11, 13, 12, 11, 5, 9, 19, 2, 16, 14, 11, 4, 15, 14, 14, 12, 18, 8, 11, 6, 12, 8, 5, 13, 18, 4, 17, 14, 15, 13, 8, 2, 8, 11, 19, 5, 6, 3, 14, 18, 17, 11, 14, 6, 13, 18, 6, 6, 14, 19, 8, 4, 2, 17, 16, 14, 18, 11, 19, 14, 19, 14, 6, 14, 13, 10, 9, 10, 13, 12, 18, 13, 19, 10, 18, 6, 2, 11, 7, 10, 14, 3, 4, 8, 4, 5, 5, 7, 9, 17, 16, 9, 11, 8, 18, 1, 4, 1, 12, 5, 1, 14, 7, 11, 9, 12, 6, 13, 5, 14, 11, 18, 1, 13, 4, 1, 1, 16, 11, 11, 10, 18, 5, 19, 4, 7, 15, 1, 12, 11, 17, 15, 1, 5, 10, 14, 17, 16, 10, 16, 11, 18, 1, 13, 14, 12, 18, 10, 18, 9, 16, 6, 8, 12, 10, 12, 11, 19, 10, 16, 17, 7, 11, 16, 6, 17, 11, 6, 8, 1, 13, 7, 5, 2, 1, 11, 18, 17, 1, 1, 12, 17, 10, 3, 16, 9, 10, 11, 3, 18, 5, 15, 3, 19, 13, 19, 16, 10, 14, 5, 5, 6, 16, 1, 11, 16, 13, 4, 13, 15, 5, 7, 16, 4, 3, 2, 6, 5, 9, 16, 19, 1, 3, 1, 14, 10, 1, 13, 13, 11, 16, 11, 8, 2, 14, 17, 16, 17, 12, 18, 4, 8, 18, 15, 6, 1, 3, 16, 9, 3, 18, 3, 4, 1, 18, 5, 4, 10, 14, 6, 2, 9, 7, 19, 14, 16, 13, 3, 1, 6, 7, 17, 19, 19, 8, 3, 7, 12, 1, 4, 7, 4, 9, 16, 8, 9, 13, 12, 17, 1, 5, 3, 6, 2, 9, 14, 7, 3, 11, 5, 9, 16, 19, 11, 18, 13, 5, 18, 14, 17, 15, 9, 18, 19, 8, 9, 14, 13, 12, 9, 12, 8, 12, 15, 3, 11, 17, 7, 4, 6, 7, 4, 17, 9, 6, 7, 6, 1, 6, 1, 2, 3, 14, 2, 3, 16, 18, 10, 7, 4, 4, 6, 10, 15, 15, 4, 10, 10, 10, 3, 17, 13, 12, 4, 16, 6, 17, 2, 18, 6, 8, 7, 16, 18, 4, 5, 11, 3, 2, 16, 19, 17, 10, 13, 16, 16, 7, 4, 9, 14, 13, 19, 6, 2, 18, 1, 3, 1, 18, 17, 12, 1, 14, 14, 12, 14, 15, 9, 6, 1, 6, 13, 19, 10, 18, 8, 14, 19, 9, 11, 11, 16, 11, 12, 3, 14, 8, 7, 9, 3, 2, 12, 2, 5, 11, 8, 2, 2, 16, 2, 10, 2, 12, 1, 6, 14, 6, 15, 18, 14, 13, 15, 9, 14, 13, 19, 12, 4, 19, 16, 14, 13, 10, 17, 15, 14, 15, 18, 18, 8, 2, 11, 18, 7, 7, 16, 16, 8, 16, 18, 3, 12, 3, 9, 13, 4, 3, 17, 17, 15, 17, 6, 11, 18, 2, 1, 18, 16, 1, 5, 6, 12, 19, 14, 17, 18, 18, 10, 19, 17, 3, 3, 19, 6, 10, 17, 4, 1, 12, 16, 4, 11, 9, 9, 14, 19, 10, 17, 12, 15, 19, 8, 4, 11, 2, 10, 8, 10, 9];
T = [10, 13, 2, 1, 1, 1, 15, 17, 11, 14, 15, 4, 19, 18, 1, 10, 20, 8, 1, 11, 13, 16, 11, 15, 2, 9, 12, 13, 13, 14, 4, 27, 6, 20, 10, 18, 18, 3, 4, 10, 4, 15, 1, 11, 7, 12, 14, 15, 6, 16, 1, 16, 14, 14, 7, 10, 13, 14, 4, 1, 13, 17, 12, 25, 9, 12, 17, 21, 13, 1, 15, 12, 11, 10, 12, 14, 16, 17, 15, 12, 11, 17, 8, 6, 12, 6, 10, 8, 1, 8, 4, 4, 12, 6, 15, 8, 13, 15, 1, 7, 14, 27, 1, 2, 2, 7, 2, 2, 11, 9, 16, 2, 9, 12, 16, 4, 13, 5, 21, 1, 16, 1, 1, 1, 17, 10, 18, 1, 17, 1, 27, 7, 5, 22, 1, 7, 9, 14, 10, 6, 12, 6, 12, 15, 20, 17, 19, 14, 21, 3, 14, 15, 1, 16, 12, 28, 7, 15, 5, 4, 12, 9, 15, 16, 18, 6, 11, 18, 13, 5, 22, 1, 17, 14, 2, 6, 4, 13, 7, 7, 1, 1, 4, 20, 19, 1, 7, 5, 16, 4, 6, 13, 1, 9, 12, 1, 19, 4, 9, 1, 23, 14, 20, 12, 3, 19, 4, 6, 6, 15, 5, 3, 16, 15, 1, 17, 22, 14, 6, 21, 1, 9, 1, 8, 6, 14, 21, 19, 1, 4, 2, 6, 3, 1, 11, 10, 13, 16, 14, 11, 15, 7, 20, 11, 21, 12, 7, 3, 3, 17, 6, 1, 1, 1, 20, 15, 1, 17, 11, 2, 1, 19, 6, 1, 8, 10, 5, 3, 11, 17, 21, 13, 20, 9, 10, 1, 5, 3, 18, 24, 22, 2, 4, 9, 10, 1, 1, 5, 4, 5, 21, 9, 1, 8, 19, 10, 1, 1, 3, 1, 1, 12, 19, 9, 5, 7, 7, 17, 18, 26, 15, 9, 18, 3, 23, 9, 17, 14, 11, 19, 17, 10, 7, 12, 17, 9, 1, 10, 13, 11, 15, 7, 5, 12, 11, 11, 4, 11, 15, 13, 4, 13, 5, 11, 6, 1, 1, 3, 2, 7, 1, 5, 16, 24, 1, 1, 3, 7, 4, 8, 5, 20, 4, 13, 10, 4, 4, 15, 16, 12, 1, 16, 8, 12, 1, 22, 4, 12, 2, 21, 16, 1, 7, 12, 18, 1, 15, 27, 17, 10, 13, 13, 14, 8, 7, 4, 11, 13, 8, 7, 1, 8, 1, 2, 3, 26, 17, 13, 7, 14, 14, 3, 7, 12, 3, 7, 1, 3, 10, 12, 3, 16, 5, 11, 19, 8, 6, 12, 7, 12, 5, 1, 22, 5, 1, 11, 3, 6, 10, 1, 2, 10, 4, 4, 2, 12, 1, 13, 1, 8, 6, 7, 18, 5, 12, 24, 1, 17, 19, 5, 11, 9, 22, 18, 1, 16, 20, 19, 22, 12, 11, 9, 10, 15, 5, 21, 14, 1, 15, 22, 8, 11, 15, 15, 6, 18, 15, 10, 20, 1, 1, 5, 2, 2, 11, 12, 17, 30, 6, 7, 13, 1, 1, 15, 7, 7, 4, 3, 19, 20, 14, 19, 17, 20, 17, 20, 22, 1, 8, 22, 13, 13, 15, 4, 1, 9, 20, 3, 11, 15, 10, 21, 15, 13, 13, 14, 10, 13, 7, 2, 8, 4, 5, 12, 10, 5, 10, 13, 2, 1, 1, 1, 15, 17, 11, 14, 15, 4, 19, 18, 1, 10, 20, 8, 1, 11, 13, 16, 11, 15, 2, 9, 12, 13, 13, 14, 4, 27, 6, 20, 10, 18, 18, 3, 4, 10, 4, 15, 1, 11, 7, 12, 14, 15, 6, 16, 1, 16, 14, 14, 7, 10, 13, 14, 4, 1, 13, 17, 12, 25, 9, 12, 17, 21, 13, 1, 15, 12, 11, 10, 12, 14, 16, 17, 15, 12, 11, 17, 8, 6, 12, 6, 10, 8, 1, 8, 4, 4, 12, 6, 15, 8, 13, 15, 1, 7, 14, 27, 1, 2, 2, 7, 2, 2, 11, 9, 16, 2, 9, 12, 16, 4, 13, 5, 21, 1, 16, 1, 1, 1, 17, 10, 18, 1, 17, 1, 27, 7, 5, 22, 1, 7, 9, 14, 10, 6, 12, 6, 12, 15, 20, 17, 19, 14, 21, 3, 14, 15, 1, 16, 12, 28, 7, 15, 5, 4, 12, 9, 15, 16, 18, 6, 11, 18, 13, 5, 22, 1, 17, 14, 2, 6, 4, 13, 7, 7, 1, 1, 4, 20, 19, 1, 7, 5, 16, 4, 6, 13, 1, 9, 12, 1, 19, 4, 9, 1, 23, 14, 20, 12, 3, 19, 4, 6, 6, 15, 5, 3, 16, 15, 1, 17, 22, 14, 6, 21, 1, 9, 1, 8, 6, 14, 21, 19, 1, 4, 2, 6, 3, 1, 11, 10, 13, 16, 14, 11, 15, 7, 20, 11, 21, 12, 7, 3, 3, 17, 6, 1, 1, 1, 20, 15, 1, 17, 11, 2, 1, 19, 6, 1, 8, 10, 5, 3, 11, 17, 21, 13, 20, 9, 10, 1, 5, 3, 18, 24, 22, 2, 4, 9, 10, 1, 1, 5, 4, 5, 21, 9, 1, 8, 19, 10, 1, 1, 3, 1, 1, 12, 19, 9, 5, 7, 7, 17, 18, 26, 15, 9, 18, 3, 23, 9, 17, 14, 11, 19, 17, 10, 7, 12, 17, 9, 1, 10, 13, 11, 15, 7, 5, 12, 11, 11, 4, 11, 15, 13, 4, 13, 5, 11, 6, 1, 1, 3, 2, 7, 1, 5, 16, 24, 1, 1, 3, 7, 4, 8, 5, 20, 4, 13, 10, 4, 4, 15, 16, 12, 1, 16, 8, 12, 1, 22, 4, 12, 2, 21, 16, 1, 7, 12, 18, 1, 15, 27, 17, 10, 13, 13, 14, 8, 7, 4, 11, 13, 8, 7, 1, 8, 1, 2, 3, 26, 17, 13, 7, 14, 14, 3, 7, 12, 3, 7, 1, 3, 10, 12, 3, 16, 5, 11, 19, 8, 6, 12, 7, 12, 5, 1, 22, 5, 1, 11, 3, 6, 10, 1, 2, 10, 4, 4, 2, 12, 1, 13, 1, 8, 6, 7, 18, 5, 12, 24, 1, 17, 19, 5, 11, 9, 22, 18, 1, 16, 20, 19, 22, 12, 11, 9, 10, 15, 5, 21, 14, 1, 15, 22, 8, 11, 15, 15, 6, 18, 15, 10, 20, 1, 1, 5, 2, 2, 11, 12, 17, 30, 6, 7, 13, 1, 1, 15, 7, 7, 4, 3, 19, 20, 14, 19, 17, 20, 17, 20, 22, 1, 8, 22, 13, 13, 15, 4, 1, 9, 20, 3, 11, 15, 10, 21, 15, 13, 13, 14, 10, 13, 7, 2, 8, 4, 5, 12, 10, 5];
Lower_Bound = [0, 10, 12, 13, 14, 29, 40, 54, 58, 77, 96, 97, 104, 112, 128, 139, 155, 154, 139, 189, 180, 192, 205, 219, 223, 250, 223, 274, 254, 13, 31, 13, 16, 20, 24, 39, 50, 57, 71, 86, 102, 103, 101, 115, 128, 138, 133, 137, 150, 167, 168, 177, 186, 203, 216, 217, 232, 244, 254, 63, 49, 41, 26, 37, 25, 70, 62, 74, 77, 85, 86, 90, 94, 100, 115, 117, 132, 139, 153, 154, 156, 158, 165, 248, 246, 235, 239, 237, 246, 73, 57, 53, 58, 93, 92, 76, 77, 78, 88, 93, 103, 102, 109, 108, 109, 116, 130, 165, 155, 161, 167, 160, 180, 197, 198, 219, 210, 225, 241, 98, 70, 84, 79, 83, 93, 108, 94, 95, 89, 107, 120, 132, 131, 120, 118, 122, 135, 142, 143, 147, 167, 168, 175, 191, 195, 208, 209, 220, 253, 105, 121, 102, 93, 92, 106, 121, 109, 106, 116, 112, 118, 133, 136, 126, 130, 129, 146, 143, 149, 166, 167, 173, 181, 187, 208, 217, 217, 219, 213, 126, 125, 135, 116, 132, 126, 137, 128, 135, 122, 133, 123, 130, 133, 150, 156, 161, 160, 161, 150, 165, 166, 177, 179, 193, 212, 213, 215, 205, 210, 137, 148, 148, 159, 146, 166, 175, 212, 155, 160, 145, 157, 133, 192, 151, 155, 164, 182, 181, 182, 182, 187, 178, 179, 187, 197, 198, 199, 202, 203, 181, 169, 216, 188, 183, 176, 193, 211, 226, 163, 181, 179, 188, 190, 176, 165, 184, 201, 198, 186, 195, 196, 206, 198, 213, 220, 232, 200, 211, 215, 200, 211, 207, 203, 190, 201, 207, 208, 235, 237, 204, 205, 205, 221, 245, 246, 194, 197, 204, 224, 196, 201, 217, 218, 218, 222, 237, 249, 250, 293, 236, 224, 212, 208, 210, 202, 203, 210, 228, 244, 237, 210, 220, 222, 235, 249, 208, 201, 205, 216, 213, 205, 206, 214, 239, 238, 241, 265, 278, 285, 237, 250, 224, 231, 223, 216, 215, 239, 229, 232, 248, 244, 233, 241, 243, 250, 262, 246, 247, 225, 220, 231, 234, 242, 241, 268, 258, 262, 264, 265, 248, 247, 241, 234, 231, 219, 220, 237, 242, 237, 246, 263, 254, 253, 273, 255, 257, 245, 236, 226, 231, 237, 245, 244, 266, 272, 283, 274, 280, 278, 256, 258, 248, 247, 246, 241, 239, 250, 253, 283, 284, 271, 270, 285, 279, 272, 268, 270, 251, 265, 245, 262, 260, 277, 297, 298, 298, 345, 295, 308, 278, 293, 297, 298, 243, 252, 267, 270, 281, 287, 272, 282, 292, 307, 317, 304, 290, 297, 284, 291, 282, 284, 299, 307, 306, 311, 323, 326, 321];
Upper_Bound = [0, 10, 12, 13, 14, 29, 40, 54, 58, 77, 96, 97, 104, 112, 128, 139, 155, 154, 139, 189, 180, 192, 205, 219, 223, 250, 223, 274, 254, 13, 31, 13, 16, 20, 24, 39, 50, 57, 71, 86, 102, 103, 101, 115, 128, 138, 133, 137, 150, 167, 168, 177, 186, 203, 216, 217, 232, 244, 254, 63, 49, 41, 26, 37, 25, 70, 62, 74, 77, 85, 86, 90, 94, 100, 115, 117, 132, 139, 153, 154, 156, 158, 165, 248, 246, 235, 239, 237, 246, 73, 57, 53, 58, 93, 92, 76, 77, 78, 88, 93, 103, 102, 109, 108, 109, 116, 130, 165, 155, 161, 167, 160, 180, 197, 198, 219, 210, 225, 241, 98, 70, 84, 79, 83, 93, 108, 94, 95, 89, 107, 120, 132, 131, 120, 118, 122, 135, 142, 143, 147, 167, 168, 175, 191, 195, 208, 209, 220, 253, 105, 121, 102, 93, 92, 106, 121, 109, 106, 116, 112, 118, 133, 136, 126, 130, 129, 146, 143, 149, 166, 167, 173, 181, 187, 208, 217, 217, 219, 213, 126, 125, 135, 116, 132, 126, 137, 128, 135, 122, 133, 123, 130, 133, 150, 156, 161, 160, 161, 150, 165, 166, 177, 179, 193, 212, 213, 215, 205, 210, 137, 148, 148, 159, 146, 166, 175, 212, 155, 160, 145, 157, 133, 192, 151, 155, 164, 182, 181, 182, 182, 187, 178, 179, 187, 197, 198, 199, 202, 203, 181, 169, 216, 188, 183, 176, 193, 211, 226, 163, 181, 179, 188, 190, 176, 165, 184, 201, 198, 186, 195, 196, 206, 198, 213, 220, 232, 200, 211, 215, 200, 211, 207, 203, 190, 201, 207, 208, 235, 237, 204, 205, 205, 221, 245, 246, 194, 197, 204, 224, 196, 201, 217, 218, 218, 222, 237, 249, 250, 293, 236, 224, 212, 208, 210, 202, 203, 210, 228, 244, 237, 210, 220, 222, 235, 249, 208, 201, 205, 216, 213, 205, 206, 214, 239, 238, 241, 265, 278, 285, 237, 250, 224, 231, 223, 216, 215, 239, 229, 232, 248, 244, 233, 241, 243, 250, 262, 246, 247, 225, 220, 231, 234, 242, 241, 268, 258, 262, 264, 265, 248, 247, 241, 234, 231, 219, 220, 237, 242, 237, 246, 263, 254, 253, 273, 255, 257, 245, 236, 226, 231, 237, 245, 244, 266, 272, 283, 274, 280, 278, 256, 258, 248, 247, 246, 241, 239, 250, 253, 283, 284, 271, 270, 285, 279, 272, 268, 270, 251, 265, 245, 262, 260, 277, 297, 298, 298, 345, 295, 308, 278, 293, 297, 298, 243, 252, 267, 270, 281, 287, 272, 282, 292, 307, 317, 304, 290, 297, 284, 291, 282, 284, 299, 307, 306, 311, 323, 326, 321];
Start = 1;
End = 448;
Time = 321;
